# 19355
param k := 6;
param n := 50;
param s := 1;
set E :=  (0,41) (1,4) (1,10) (2,17) (3,31) (3,33) (3,46) (4,25) (5,7) (5,22) (6,15) (6,28) (7,19) (7,33) (8,36) (9,48) (10,22) (11,17) (12,14) (13,35) (13,45) (14,31) (15,38) (16,28) (16,30) (17,26) (17,30) (17,41) (18,37) (20,31) (21,29) (23,25) (24,35) (24,49) (25,28) (25,34) (25,37) (25,43) (27,43) (28,36) (29,42) (29,45) (30,49) (32,38) (32,40) (35,47) (37,45) (39,43) (44,45) (44,48);